50
6551

218 766
385 500
382 523
297 77
255 571
510 611
636 878
908 83
55 666
266 986
732 14
849 321
944 90
992 421
155 128
54 429
625 881
554 744
110 968
185 12
969 172
848 426
190 481
816 299
113 563
274 702
967 44
49 578
230 884
841 413
726 620
244 577
454 738
210 861
453 43
666 458
932 575
537 927
773 917
896 114
841 475
289 716
172 185
945 264
100 309
243 730
341 969
692 936
6 857
95 893
